c ---- [ banner ] ------------------------------------------------------------
c
c Kissat SAT Solver
c 
c Copyright (c) 2021-2024 Armin Biere University of Freiburg
c Copyright (c) 2019-2021 Armin Biere Johannes Kepler University Linz
c 
c Version 4.0.1 43f02cf3e992cb44653b35e5cb26f93281552ae0
c gcc (Ubuntu 13.2.0-23ubuntu4) 13.2.0 -W -Wall -O3 -DNDEBUG
c Thu Sep 12 12:27:46 CEST 2024 Linux abryzen9 6.8.0-41-generic x86_64
c
c ---- [ parsing ] -----------------------------------------------------------
c
c opened and reading DIMACS file:
c
c   /data/artifact/AMulet2.0_artifact/exp4/cnf_resyn3_64/64_64_U_SP_WT_BK_GenMul_resyn3.cnf
c
c parsed 'p cnf 26601 117195' header
c closing input after reading 2321362 bytes (2 MB)
c finished parsing after 0.03 seconds
c
c ---- [ options ] -----------------------------------------------------------
c
c --stable=0                       (different from default '1')
c
c ---- [ solving ] -----------------------------------------------------------
c
c  seconds switched rate     size/glue tier1  binary           remaining
c         MB reductions conflicts size  tier2     irredundant
c          level restarts redundant glue  trail           variables
c
c *  0.03 10 0 0 0  0 0   0   0 0.0 0 0 0 0 0% 11414 105779 26598 100%
c (  0.05 11 0 0 0  0 0   0   0 0.0 0 0 0 0 0% 11414 105779 26598 100%
c .  0.06 11 0 0 0  0 0   0   0 0.0 0 0 0 0 0% 11410 105779 26598 100%
c c  0.14 17 0 0 0  0 0   0   0 0.0 0 0 0 0 0% 11432 105778 26596 100%
c d  0.15 17 0 0 0  0 0   0   0 0.0 0 0 0 0 0% 11428 105778 26596 100%
c f  0.32 16 0 0 0  0 0   0   0 0.0 0 0 0 0 0% 16214 98243 29305 110%
c e  0.50 24 0 0 0  0 0   0   0 0.0 0 0 0 0 0% 10643 106218 20574 77%
c )  0.50 24 0 0 0  0 0   0   0 0.0 0 0 0 0 0% 10643 106218 20574 77%
c {  0.53 24 0 0 0  0 0   0   0 0.0 0 0 2 6 0% 10643 106218 20574 77%
c -  0.81 24 164 0 1 302 47 1002 668 3.9 19 5 3 8 20% 10784 106208 20574 77%
c -  1.01 24 324 0 2 443 43 2002 1409 3.5 17 5 2 8 24% 10840 106206 20574 77%
c d  1.15 24 331 0 2 529 46 2503 1807 3.7 17 5 2 8 24% 10876 106205 20568 77%
c u  1.17 24 331 0 2 529 46 2503 1571 3.7 17 5 2 8 24% 10885 106205 20568 77%
c v  1.20 24 331 0 2 529 46 2503 1238 3.7 17 5 2 8 24% 10885 106205 20568 77%
c w  1.22 24 331 0 2 529 46 2503 1238 3.7 17 5 2 8 24% 10885 106205 20568 77%
c x  1.25 24 331 0 2 529 46 2503 1238 3.7 17 5 2 8 24% 10889 106187 20568 77%
c t  1.27 24 331 0 2 529 46 2503 1238 3.7 17 5 2 8 24% 10884 106187 20568 77%
c f  1.30 24 331 0 2 529 46 2503 1238 3.7 17 5 2 8 24% 11524 104907 21146 79%
c u  1.41 22 331 0 2 529 46 2503 1212 3.7 17 5 2 8 24% 11530 104907 21146 79%
c v  1.43 22 331 0 2 529 46 2503 1177 3.7 17 5 2 8 24% 11530 104907 21146 79%
c
c  seconds   switched   rate       size/glue tier1    binary           remaining
c         MB  reductions conflicts       size  tier2      irredundant
c           level restarts    redundant    glue   trail           variables
c
c w  1.47 22 331 0 2 529 46 2503 1164 3.7 17 5 2 8 24% 11530 104907 21146 79%
c =  1.55 22 331 0 2 529 46 2503 1164 3.7 17 5 2 8 24% 11710 104907 21056 79%
c d  1.56 22 331 0 2 529 46 2503 1163 3.7 17 5 2 8 24% 11528 104907 21056 79%
c f  1.59 22 331 0 2 529 46 2503 1163 3.7 17 5 2 8 24% 11577 104831 21081 79%
c -  1.86 25 402 0 3 661 50 3417 1676 4.0 22 5 2 8 24% 11653 104830 21081 79%
c -  2.25 25 475 0 4 867 48 5149 2809 4.0 21 5 2 8 25% 11734 104829 21081 79%
c -  2.75 25 472 0 5 1065 44 7149 4021 4.5 25 5 2 7 24% 11816 104828 21081 79%
c d  2.88 25 463 0 5 1109 43 7709 4492 4.4 24 5 2 7 24% 11784 104828 21055 79%
c u  2.92 25 463 0 5 1109 43 7709 3922 4.4 24 5 2 7 24% 11801 104828 21055 79%
c v  2.96 25 463 0 5 1109 43 7709 3309 4.4 24 5 2 7 24% 11805 104828 21055 79%
c w  3.00 25 463 0 5 1109 43 7709 3298 4.4 24 5 2 7 24% 11805 104828 21055 79%
c x  3.04 25 463 0 5 1109 43 7709 3298 4.4 24 5 2 7 24% 11805 104734 21055 79%
c =  3.18 25 463 0 5 1109 43 7709 3298 4.4 24 5 2 7 24% 12093 104734 20911 79%
c d  3.19 25 463 0 5 1109 43 7709 3296 4.4 24 5 2 7 24% 11763 104734 20908 79%
c t  3.21 25 463 0 5 1109 43 7709 3296 4.4 24 5 2 7 24% 11753 104734 20908 79%
c f  3.26 25 463 0 5 1109 43 7709 3296 4.4 24 5 2 7 24% 12257 103973 21159 80%
c u  3.31 25 463 0 5 1109 43 7709 3159 4.4 24 5 2 7 24% 12265 103973 21159 80%
c v  3.33 25 463 0 5 1109 43 7709 3081 4.4 24 5 2 7 24% 12266 103973 21159 80%
c w  3.37 25 463 0 5 1109 43 7709 3072 4.4 24 5 2 7 24% 12266 103973 21159 80%
c =  3.49 25 463 0 5 1109 43 7709 3072 4.4 24 5 2 7 24% 12766 103973 20909 79%
c
c  seconds   switched    rate       size/glue tier1    binary           remaining
c         MB  reductions  conflicts       size  tier2      irredundant
c           level  restarts    redundant    glue   trail           variables
c
c d  3.50 26 463 0 5 1109 43 7709 3070 4.4 24 5 2 7 24% 12146 103973 20909 79%
c t  3.52 26 463 0 5 1109 43 7709 3070 4.4 24 5 2 7 24% 12076 103973 20909 79%
c f  3.57 26 463 0 5 1109 43 7709 3070 4.4 24 5 2 7 24% 14573 100225 22158 83%
c -  3.96 26 465 0 6 1266 42 9386 3987 4.3 23 5 2 7 24% 14662 100225 22158 83%
c o  4.10 26 471 0 6 1305 41 10029 4511 4.4 24 5 2 7 25% 14701 100224 22158 83%
c -  4.74 26 432 0 7 1572 40 11835 5412 4.6 26 6 2 7 26% 14792 100221 22158 83%
c s  4.99 26 421 0 7 1635 40 12511 5958 4.7 27 6 2 7 26% 14821 98091 22158 83%
c e  5.12 26 421 0 7 1635 40 12511 5958 4.7 27 6 2 7 26% 14102 98557 21554 81%
c s  5.12 26 421 0 7 1635 40 12511 5958 4.7 27 6 2 7 26% 14112 98332 21554 81%
c e  5.14 26 421 0 7 1635 40 12511 5958 4.7 27 6 2 7 26% 14083 98342 21536 81%
c ^  5.14 26 421 0 7 1635 40 12511 5958 4.7 27 6 2 7 26% 14083 98342 21536 81%
c -  5.76 26 409 0 8 1879 39 14482 6451 4.7 28 6 2 7 26% 14155 98342 21536 81%
c c  6.07 26 400 0 8 1960 38 15790 7554 4.6 28 6 2 7 25% 14249 98148 21485 81%
c d  6.07 26 400 0 8 1960 38 15790 7522 4.6 28 6 2 7 25% 13839 98148 21303 80%
c u  6.12 26 400 0 8 1960 38 15790 6499 4.6 28 6 2 7 25% 13863 98148 21303 80%
c v  6.18 26 400 0 8 1960 38 15790 5623 4.6 28 6 2 7 25% 13864 98148 21303 80%
c w  6.27 26 400 0 8 1960 38 15790 5592 4.6 28 6 2 7 25% 13864 98148 21303 80%
c =  6.47 26 400 0 8 1960 38 15790 5592 4.6 28 6 2 7 25% 14248 98144 21111 79%
c d  6.48 26 400 0 8 1960 38 15790 5580 4.6 28 6 2 7 25% 13694 98144 21108 79%
c t  6.51 26 400 0 8 1960 38 15790 5580 4.6 28 6 2 7 25% 13629 98144 21108 79%
c
c  seconds   switched    rate        size/glue tier1    binary          remaining
c         MB  reductions   conflicts       size  tier2      irredundant
c           level  restarts     redundant    glue   trail          variables
c
c f  6.58 26 400 0 8 1960 38 15790 5580 4.6 28 6 2 7 25% 13664 98065 21128 79%
c b  6.60 26 400 0 8 1960 38 15790 5580 4.6 28 6 2 7 25% 13664 98065 21127 79%
c u  6.63 26 400 0 8 1960 38 15790 5410 4.6 28 6 2 7 25% 13669 98065 21127 79%
c v  6.67 26 400 0 8 1960 38 15790 5286 4.6 28 6 2 7 25% 13669 98065 21127 79%
c w  6.74 26 400 0 8 1960 38 15790 5268 4.6 28 6 2 7 25% 13669 98065 21127 79%
c x  6.80 26 400 0 8 1960 38 15790 5268 4.6 28 6 2 7 25% 13684 97876 21127 79%
c =  7.01 26 400 0 8 1960 38 15790 5268 4.6 28 6 2 7 25% 14244 97876 20847 78%
c d  7.02 26 400 0 8 1960 38 15790 5188 4.6 28 6 2 7 25% 13626 97876 20847 78%
c t  7.05 26 400 0 8 1960 38 15790 5188 4.6 28 6 2 7 25% 13624 97876 20847 78%
c f  7.07 26 400 0 8 1960 38 15790 5188 4.6 28 6 2 7 25% 13627 97868 20849 78%
c -  7.68 26 392 0 9 2178 39 17310 5869 4.8 30 6 2 7 26% 13652 97865 20849 78%
c o  8.38 26 397 0 9 2466 39 20190 8308 4.8 30 6 2 7 25% 13782 97861 20849 78%
c -  8.46 26 395 0 10 2497 39 20310 7530 4.8 31 6 2 7 25% 13783 97861 20849 78%
c -  9.39 26 375 0 11 2795 37 23473 9180 4.8 31 7 2 7 26% 13853 97861 20849 78%
c s  9.74 26 393 0 11 2897 37 25016 10470 4.7 31 6 2 7 26% 13928 96124 20849 78%
c e  9.87 26 393 0 11 2897 37 25016 10470 4.7 31 6 2 7 26% 11082 100279 19218 72%
c 2  9.87 26 393 0 11 2897 37 25016 10470 4.7 31 6 2 7 26% 11081 100279 19218 72%
c s  9.88 26 393 0 11 2897 37 25016 10470 4.7 31 6 2 7 26% 11103 100000 19218 72%
c e  9.89 26 393 0 11 2897 37 25016 10470 4.7 31 6 2 7 26% 11077 100032 19204 72%
c ^  9.89 26 393 0 11 2897 37 25016 10470 4.7 31 6 2 7 26% 11077 100032 19204 72%
c
c  seconds   switched     rate        size/glue tier1    binary           remaining
c         MB   reductions   conflicts       size  tier2      irredundant
c           level   restarts     redundant    glue   trail           variables
c
c - 10.34 26 388 0 12 3035 37 26789 9531 4.7 30 6 2 7 26% 11137 100031 19204 72%
c c 10.46 26 387 0 12 3055 37 26920 9653 4.7 30 6 2 7 26% 11167 99893 19178 72%
c d 10.47 26 387 0 12 3055 37 26920 9606 4.7 30 6 2 7 26% 10824 99893 19004 71%
c u 10.53 26 387 0 12 3055 37 26920 8198 4.7 30 6 2 7 26% 10852 99893 19004 71%
c v 10.58 26 387 0 12 3055 37 26920 7296 4.7 30 6 2 7 26% 10853 99893 19004 71%
c w 10.62 26 387 0 12 3055 37 26920 7291 4.7 30 6 2 7 26% 10853 99893 19004 71%
c = 10.92 26 387 0 12 3055 37 26920 7291 4.7 30 6 2 7 26% 14011 99893 17425 66%
c d 10.93 26 387 0 12 3055 37 26920 7214 4.7 30 6 2 7 26% 10779 99893 17423 66%
c t 10.95 26 387 0 12 3055 37 26920 7214 4.7 30 6 2 7 26% 10684 99893 17423 66%
c f 11.03 26 387 0 12 3055 37 26920 7214 4.7 30 6 2 7 26% 10733 99727 17453 66%
c c 11.11 26 387 0 12 3055 37 26920 7212 4.7 30 6 2 7 26% 10747 99659 17444 66%
c d 11.12 26 387 0 12 3055 37 26920 7212 4.7 30 6 2 7 26% 10729 99659 17444 66%
c u 11.16 26 387 0 12 3055 37 26920 6804 4.7 30 6 2 7 26% 10733 99659 17444 66%
c v 11.20 26 387 0 12 3055 37 26920 6661 4.7 30 6 2 7 26% 10733 99659 17444 66%
c w 11.23 26 387 0 12 3055 37 26920 6660 4.7 30 6 2 7 26% 10733 99659 17444 66%
c = 11.53 26 387 0 12 3055 37 26920 6660 4.7 30 6 2 7 26% 14965 99659 15328 58%
c d 11.54 26 387 0 12 3055 37 26920 6588 4.7 30 6 2 7 26% 10679 99659 15328 58%
c t 11.56 26 387 0 12 3055 37 26920 6588 4.7 30 6 2 7 26% 10397 99659 15328 58%
c f 11.61 26 387 0 12 3055 37 26920 6588 4.7 30 6 2 7 26% 10449 99438 15380 58%
c - 12.56 26 369 0 13 3390 36 30254 8623 4.6 30 7 2 6 26% 10522 99438 15380 58%
c
c  seconds   switched     rate         size/glue tier1    binary          remaining
c         MB   reductions   conflicts        size  tier2      irredundant
c           level   restarts      redundant    glue   trail          variables
c
c - 13.48 28 350 0 14 3754 35 33859 10517 4.5 30 7 2 6 26% 10616 99438 15380 58%
c - 14.42 28 331 0 15 4128 34 37600 12197 4.4 29 7 2 6 26% 10688 99437 15380 58%
c o 14.90 28 319 0 15 4321 33 40465 14505 4.3 29 7 2 6 26% 10782 99437 15380 58%
c d 15.06 28 316 0 15 4383 33 41250 14776 4.3 28 7 2 6 26% 10566 99436 15253 57%
c u 15.15 28 316 0 15 4383 33 41250 12319 4.3 28 7 2 6 26% 10599 99436 15253 57%
c v 15.25 28 316 0 15 4383 33 41250 10725 4.3 28 7 2 6 26% 10605 99436 15253 57%
c w 15.43 28 316 0 15 4383 33 41250 10713 4.3 28 7 2 6 26% 10605 99436 15253 57%
c = 15.75 28 316 0 15 4383 33 41250 10713 4.3 28 7 2 6 26% 13809 99436 13651 51%
c d 15.76 28 316 0 15 4383 33 41250 10034 4.3 28 7 2 6 26% 10488 99436 13651 51%
c t 15.78 28 316 0 15 4383 33 41250 10034 4.3 28 7 2 6 26% 10164 99436 13651 51%
c f 15.83 28 316 0 15 4383 33 41250 10034 4.3 28 7 2 6 26% 10229 99176 13710 52%
c u 15.96 28 316 0 15 4383 33 41250 9195 4.3 28 7 2 6 26% 10239 99176 13710 52%
c v 16.01 28 316 0 15 4383 33 41250 8936 4.3 28 7 2 6 26% 10239 99176 13710 52%
c w 16.10 28 316 0 15 4383 33 41250 8828 4.3 28 7 2 6 26% 10239 99176 13710 52%
c x 16.16 28 316 0 15 4383 33 41250 8826 4.3 28 7 2 6 26% 10256 83889 13710 52%
c t 16.46 28 316 0 15 4383 33 41250 8826 4.3 28 7 2 6 26% 10244 83889 13710 52%
c - 16.59 28 315 0 16 4417 33 41472 8093 4.3 29 7 2 6 26% 10245 83889 13710 52%
c i 17.43 28 302 0 16 4818 32 45314 11483 4.2 28 7 2 6 26% 10351 83886 13708 52%
c - 17.44 28 302 0 17 4818 32 45472 10357 4.2 28 7 2 6 26% 10353 83886 13708 52%
c i 17.47 28 300 0 17 4829 32 45797 10641 4.1 28 7 2 6 26% 10368 83886 13707 52%
c
c  seconds   switched     rate         size/glue tier1    binary          remaining
c         MB   reductions   conflicts        size  tier2      irredundant
c           level   restarts      redundant    glue   trail          variables
c
c i 18.23 28 292 0 17 5176 32 48108 12785 4.1 28 7 2 6 26% 10405 83885 13706 52%
c - 18.76 28 287 0 18 5416 32 49595 12721 4.1 28 7 2 6 26% 10404 83885 13706 52%
c i 19.08 28 283 0 18 5545 31 50883 13915 4.0 28 7 2 6 26% 10423 83885 13705 52%
c i 19.41 28 279 0 18 5685 31 51939 14881 4.0 28 7 2 6 27% 10438 83885 13704 52%
c s 19.48 28 279 0 18 5694 31 52128 15069 4.0 28 7 2 6 27% 10442 65804 13704 52%
c e 19.57 28 279 0 18 5694 31 52128 15069 4.0 28 7 2 6 27% 9909 66367 13293 50%
c 2 19.57 28 279 0 18 5694 31 52128 15069 4.0 28 7 2 6 27% 9891 66367 13293 50%
c s 19.57 28 279 0 18 5694 31 52128 15069 4.0 28 7 2 6 27% 9907 66025 13293 50%
c e 19.58 28 279 0 18 5694 31 52128 15069 4.0 28 7 2 6 27% 9882 66060 13277 50%
c ^ 19.58 28 279 0 18 5694 31 52128 15069 4.0 28 7 2 6 27% 9882 66060 13277 50%
c - 20.10 28 273 0 19 5958 31 53838 13910 4.0 28 7 2 6 27% 9893 66058 13277 50%
c - 21.11 28 262 0 20 6704 31 58197 14299 4.0 29 7 1 6 28% 9917 66053 13277 50%
c i 21.11 28 262 0 20 6705 31 58202 14299 4.0 29 7 1 6 28% 9920 66053 13275 50%
c i 21.15 28 262 0 20 6735 31 58532 14578 4.0 29 7 1 6 28% 9927 66053 13274 50%
c i 21.15 28 262 0 20 6736 31 58533 14578 4.0 29 7 1 6 28% 9927 66053 13272 50%
c d 21.24 28 262 0 20 6826 31 58878 14825 4.0 29 7 1 6 28% 9951 66003 13271 50%
c d 21.24 28 262 0 20 6826 31 58878 14810 4.0 29 7 1 6 28% 9932 65995 13263 50%
c u 21.27 28 262 0 20 6826 31 58878 13260 4.0 29 7 1 6 28% 9955 65995 13260 50%
c v 21.33 28 262 0 20 6826 31 58878 10635 4.0 29 7 1 6 28% 9970 65995 13257 50%
c w 21.39 28 262 0 20 6826 31 58878 10584 4.0 29 7 1 6 28% 9970 65995 13257 50%
c
c  seconds   switched     rate         size/glue tier1    binary         remaining
c         MB   reductions   conflicts        size  tier2     irredundant
c           level   restarts      redundant    glue   trail         variables
c
c t 21.40 28 262 0 20 6826 31 58878 10578 4.0 29 7 1 6 28% 9898 65933 13257 50%
c f 21.42 28 262 0 20 6826 31 58878 10578 4.0 29 7 1 6 28% 9905 65820 13275 50%
c d 21.42 28 262 0 20 6826 31 58878 10573 4.0 29 7 1 6 28% 9883 65814 13264 50%
c u 21.44 28 262 0 20 6826 31 58878 10224 4.0 29 7 1 6 28% 9891 65814 13264 50%
c v 21.48 28 262 0 20 6826 31 58878 9739 4.0 29 7 1 6 28% 9896 65814 13264 50%
c w 21.53 28 262 0 20 6826 31 58878 9722 4.0 29 7 1 6 28% 9896 65814 13264 50%
c x 21.65 28 262 0 20 6826 31 58878 9706 4.0 29 7 1 6 28% 10042 63667 13262 50%
c = 21.95 28 262 0 20 6826 31 58878 9706 4.0 29 7 1 6 28% 10088 63629 13233 50%
c d 21.96 28 262 0 20 6826 31 58878 9693 4.0 29 7 1 6 28% 10020 63621 13230 50%
c d 21.96 28 262 0 20 6826 31 58878 9692 4.0 29 7 1 6 28% 10016 63621 13228 50%
c t 21.97 28 262 0 20 6826 31 58878 9692 4.0 29 7 1 6 28% 9924 63621 13228 50%
c f 21.98 28 262 0 20 6826 31 58878 9692 4.0 29 7 1 6 28% 9923 63617 13229 50%
c i 21.98 28 262 0 20 6826 31 58878 9692 4.0 29 7 1 6 28% 9923 63617 13229 50%
c i 22.01 28 261 0 20 6864 31 59146 9933 4.0 29 7 1 6 28% 9930 63614 13228 50%
c i 22.06 28 260 0 20 6898 31 59487 10254 4.0 29 7 1 6 28% 9934 63610 13227 50%
c i 22.16 28 257 0 20 6987 31 60402 11113 4.0 29 7 1 6 28% 9942 63610 13223 50%
c i 22.21 28 255 0 20 7023 31 60817 11501 3.9 29 7 1 6 28% 9947 63610 13222 50%
c i 22.26 28 254 0 20 7068 31 61130 11796 3.9 29 7 1 6 28% 9954 63610 13221 50%
c i 22.30 28 252 0 20 7091 30 61851 12467 3.9 28 7 1 6 28% 9962 63608 13220 50%
c i 22.32 28 251 0 20 7096 30 62091 12695 3.9 28 7 1 6 28% 9967 63608 13219 50%
c
c  seconds   switched     rate         size/glue tier1    binary         remaining
c         MB   reductions   conflicts        size  tier2     irredundant
c           level   restarts      redundant    glue   trail         variables
c
c - 22.41 28 249 0 21 7179 30 62669 11855 3.9 28 7 2 6 28% 9898 63603 13219 50%
c i 22.47 28 248 0 21 7229 30 62915 12059 3.9 28 7 2 6 28% 9908 63602 13218 50%
c i 22.50 28 247 0 21 7245 30 63249 12380 3.9 28 7 2 6 28% 9911 63602 13217 50%
c i 22.57 28 245 0 21 7301 30 63841 12928 3.8 28 7 2 6 28% 9917 63601 13214 50%
c i 22.60 28 244 0 21 7323 30 64059 13131 3.8 28 7 2 6 28% 9919 63601 13210 50%
c i 22.63 28 242 0 21 7340 30 64561 13590 3.8 28 7 2 6 28% 9923 63599 13209 50%
c i 22.63 28 242 0 21 7340 30 64625 13636 3.8 28 7 2 6 28% 9924 63598 13208 50%
c i 22.67 28 240 0 21 7367 29 65305 14252 3.8 28 7 2 6 28% 9934 63598 13206 50%
c i 22.67 28 239 0 21 7367 29 65308 14252 3.8 28 7 2 6 28% 9936 63598 13205 50%
c i 22.70 28 237 0 21 7404 29 65955 14818 3.8 27 7 2 6 28% 9946 63596 13204 50%
c i 22.72 28 235 0 21 7414 29 66463 15254 3.8 27 7 2 6 27% 9954 63596 13203 50%
c i 22.72 28 234 0 21 7424 29 66750 15492 3.8 27 7 2 6 27% 9968 63596 13202 50%
c i 22.72 28 234 0 21 7424 28 66835 15547 3.8 27 7 2 6 27% 9975 63596 13186 50%
c i 22.72 28 234 0 21 7424 28 66836 15547 3.8 27 7 2 6 27% 9975 63596 13180 50%
c } 22.72 28 234 0 21 7424 28 66838 15547 3.8 27 7 2 6 27% 9975 63596 13168 50%
c 0 22.72 28 234 0 21 7424 28 66838 15547 3.8 27 7 2 6 27% 9975 63596 13168 50%
c
c ---- [ result ] ------------------------------------------------------------
c
s UNSATISFIABLE
c
c ---- [ profiling ] ---------------------------------------------------------
c
c          16.03   70.54 %  search
c          16.03   70.54 %  focused
c           6.17   27.14 %  simplify
c           5.92   26.06 %  probe
c           2.32   10.20 %  sweep
c           1.97    8.65 %  vivify
c           0.62    2.75 %  factor
c           0.51    2.24 %  eliminate
c           0.45    1.98 %  preprocess
c           0.43    1.89 %  congruence
c           0.41    1.82 %  substitute
c           0.18    0.79 %  fastel
c           0.15    0.64 %  reduce
c           0.11    0.47 %  transitive
c           0.10    0.43 %  subsume
c           0.06    0.28 %  backbone
c           0.04    0.19 %  lucky
c           0.03    0.14 %  parse
c =============================================
c          22.72  100.00 %  total
c
c ---- [ statistics ] --------------------------------------------------------
c
c chronological:                         3950                6 %  conflicts
c conflicts:                            66838             2941.29 per second
c congruent:                               88                0 %  variables
c decisions:                          1894318               28.34 per conflict
c eliminated:                           11425               43 %  variables
c factored:                              4994               19 %  variables
c fast_eliminated:                       8731               76 %  eliminated
c fast_strengthened:                       11                2 %  per strengthened
c fast_subsumed:                           45                0 %  per subsumed
c iterations:                              29                0 %  variables
c propagations:                      75072904          3303673    per second
c reductions:                              21             3183    interval
c reordered:                                3            22279    interval
c restarts:                              7424                9    interval
c strengthened:                           614                0 %  checks
c substituted:                           6912               26 %  variables
c subsumed:                             22762                1 %  checks
c switched:                                 0                0    interval
c vivified:                             40469               18 %  checks
c
c ---- [ glue usage ] --------------------------------------------------------
c
c focused glue 2 used 26926 clauses 24.57% accumulated 74.56% tier1
c focused glue 3 used  8165 clauses  7.45% accumulated 82.01%
c focused glue 4 used  4931 clauses  4.50% accumulated 86.51%
c focused glue 5 used  3072 clauses  2.80% accumulated 89.31%
c focused glue 6 used  2205 clauses  2.01% accumulated 91.33% tier2
c
c ---- [ resources ] ---------------------------------------------------------
c
c maximum-resident-set-size:         29454336 bytes         28 MB
c process-time:                            23s              22.72 seconds
c
c ---- [ shutting down ] -----------------------------------------------------
c
c exit 20
